width,height
25,5
3,4
10,5
6,1
11,4
16,4
18,3
1,1
18,2
16,2
20,3
1,2
11,1
6,4
25,4
4,1
7,5
25,2
6,4
1,2
13,1
10,4
8,2
1,2
18,4
3,1
14,3
1,3
25,3
9,4
1,4
2,1
4,3
13,4
12,1
23,4
10,1
6,1
18,3
5,1
25,4
11,5
22,1
23,2
21,5
14,4
5,4
3,3
3,1
21,5
23,3
3,1
6,3
9,4
24,2
15,3
12,3
9,5
15,2
18,4
19,5
11,3
21,2
2,5
12,4
5,4
16,3
20,2
1,1
1,3
10,4
14,4
16,1
23,4
5,5
20,3
17,4
20,2
22,5
14,4
21,4
3,4
17,1
21,1
20,3
18,4
18,2
8,2
3,2
1,4
18,2
1,1
3,3
13,4
5,4
8,1
22,1
14,4
25,2
5,3
7,5
